NAME : portcgen-17-18
COMMENT : portcgen N=17, seed=18
TYPE : TSP
DIMENSION : 17
EDGE_WEIGHT_TYPE : EUC_2D
NODE_COORD_SECTION
1 300552 100959
2 -280744 457332
3 165101 599935
4 161146 111728
5 94993 182266
6 -196456 201693
7 -67360 337959
8 -396876 -363184
9 139652 273607
10 296403 189547
11 410222 -280899
12 124429 -408245
13 -78076 -76218
14 92879 301931
15 179763 -596420
16 -8564 325332
17 46570 -100780
